objective value:                 0.000866637507000157
x_1_2                                               1 	(obj:0)
x_2_1                                               1 	(obj:0)
x_3_2                                               1 	(obj:0)
x_4_3                                               1 	(obj:0)
x_5_3                                               1 	(obj:0)
x_6_1                                               1 	(obj:0)
x_7_1                                               1 	(obj:0)
x_8_2                                               1 	(obj:0)
x_9_3                                               1 	(obj:0)
x_10_3                                              1 	(obj:0)
x_11_2                                              1 	(obj:0)
x_12_2                                              1 	(obj:0)
x_13_1                                              1 	(obj:0)
x_14_1                                              1 	(obj:0)
x_15_3                                              1 	(obj:0)
x_16_2                                              1 	(obj:0)
x_17_1                                              1 	(obj:0)
x_18_1                                              1 	(obj:0)
x_19_2                                              1 	(obj:0)
x_20_2                                              1 	(obj:0)
ind_1                                               1 	(obj:0)
abs_1_2                                             1 	(obj:0)
ind_2                                               1 	(obj:0)
abs_2_3                               1.0000000034923 	(obj:0)
ind_3                                               1 	(obj:0)
abs_3_1                                             1 	(obj:0)
epsI                             0.000866637507000157 	(obj:1)
prodt_x_19_2_t_x_20_2_coh_2                         1 	(obj:0)
prodt_x_1_2_t_x_2_1_more_coh_1           0.1318745157 	(obj:0)
prodt_x_2_1_t_x_3_1_more_coh_1           6.0995168323 	(obj:0)
prodt_x_6_1_t_x_7_1_more_coh_1           4.6722125785 	(obj:0)
prodt_x_7_1_t_x_9_1_more_coh_1           3.7625651766 	(obj:0)
prodt_x_13_1_t_x_15_1_more_coh_1         3.5664107732 	(obj:0)
prodt_x_14_1_t_x_15_1_more_coh_1         0.7634747163 	(obj:0)
prodt_x_17_1_t_x_18_1_more_coh_1          1.178348029 	(obj:0)
prodt_x_1_2_t_x_2_2_more_coh_2           3.9075412994 	(obj:0)
prodt_x_3_2_t_x_4_2_more_coh_2           3.1928856399 	(obj:0)
prodt_x_8_2_t_x_11_2_more_coh_2          3.4492306869 	(obj:0)
prodt_x_11_2_t_x_12_2_more_coh_2         2.4315679294 	(obj:0)
prodt_x_12_2_t_x_13_2_more_coh_2         2.5356507086 	(obj:0)
prodt_x_16_2_t_x_17_2_more_coh_2         1.0800143696 	(obj:0)
prodt_x_4_3_t_x_5_3_more_coh_3           2.9412262861 	(obj:0)
prodt_x_5_3_t_x_6_3_more_coh_3           2.4438250414 	(obj:0)
prodt_x_9_3_t_x_14_3_more_coh_3           2.310005781 	(obj:0)
prodt_x_10_3_t_x_11_3_more_coh_3          1.875344268 	(obj:0)
prodt_x_1_2_t_x_2_2_more_irrev1_2_1     2.65657234682194 	(obj:0)
prodt_x_2_1_t_x_4_2_more_irrev1_2_1    0.658162652667964 	(obj:0)
prodt_x_3_2_t_x_4_1_more_irrev1_2_1     3.53806618141446 	(obj:0)
prodt_x_6_1_t_x_7_2_more_irrev1_2_1      3.7659614811981 	(obj:0)
prodt_x_7_1_t_x_8_2_more_irrev1_2_1    0.364799730000001 	(obj:0)
prodt_x_8_2_t_x_9_1_more_irrev1_2_1     1.33818993844987 	(obj:0)
prodt_x_11_2_t_x_13_1_more_irrev1_2_1     2.84728924766347 	(obj:0)
prodt_x_12_2_t_x_13_1_more_irrev1_2_1    0.317420359999999 	(obj:0)
prodt_x_13_1_t_x_14_2_more_irrev1_2_1    0.868504500977491 	(obj:0)
prodt_x_14_1_t_x_16_2_more_irrev1_2_1     2.21009534498451 	(obj:0)
prodt_x_16_2_t_x_19_1_more_irrev1_2_1    0.583657151945789 	(obj:0)
prodt_x_17_1_t_x_20_2_more_irrev1_2_1     0.14647378108461 	(obj:0)
prodt_x_18_1_t_x_19_2_more_irrev1_2_1     1.74422666895076 	(obj:0)
prodt_x_1_2_t_x_2_2_more_irrev2_2_1    -2.65657234682194 	(obj:0)
prodt_x_2_1_t_x_4_2_more_irrev2_2_1   -0.658162652669137 	(obj:0)
prodt_x_3_2_t_x_4_1_more_irrev2_2_1    -3.53806618141446 	(obj:0)
prodt_x_6_1_t_x_7_2_more_irrev2_2_1    -3.76596148119809 	(obj:0)
prodt_x_7_1_t_x_8_2_more_irrev2_2_1   -0.364799730000001 	(obj:0)
prodt_x_8_2_t_x_9_1_more_irrev2_2_1    -1.33818993844987 	(obj:0)
prodt_x_11_2_t_x_13_1_more_irrev2_2_1    -2.84728924766346 	(obj:0)
prodt_x_12_2_t_x_13_1_more_irrev2_2_1   -0.317420359999999 	(obj:0)
prodt_x_13_1_t_x_14_2_more_irrev2_2_1   -0.868504500977491 	(obj:0)
prodt_x_14_1_t_x_16_2_more_irrev2_2_1    -2.21009534498451 	(obj:0)
prodt_x_16_2_t_x_19_1_more_irrev2_2_1   -0.583657151945789 	(obj:0)
prodt_x_17_1_t_x_20_2_more_irrev2_2_1    -0.14647378108461 	(obj:0)
prodt_x_18_1_t_x_19_2_more_irrev2_2_1     1.74422666895076 	(obj:0)
prodt_x_1_2_t_x_2_3_more_irrev1_3_1    -2.66436996290589 	(obj:0)
prodt_x_2_1_t_x_4_3_more_irrev1_3_1    -2.44185640417007 	(obj:0)
prodt_x_4_3_t_x_7_1_more_irrev1_3_1           -2.2356974 	(obj:0)
prodt_x_5_3_t_x_7_1_more_irrev1_3_1   -0.770747440377568 	(obj:0)
prodt_x_6_1_t_x_7_3_more_irrev1_3_1    -1.07439985701732 	(obj:0)
prodt_x_7_1_t_x_8_3_more_irrev1_3_1    -1.58986988000002 	(obj:0)
prodt_x_9_3_t_x_11_1_more_irrev1_3_1   -0.767234099570724 	(obj:0)
prodt_x_10_3_t_x_12_1_more_irrev1_3_1     -2.4291422064716 	(obj:0)
prodt_x_13_1_t_x_14_3_more_irrev1_3_1                   -1 	(obj:0)
prodt_x_14_1_t_x_16_3_more_irrev1_3_1  -0.0376966949945694 	(obj:0)
prodt_x_15_3_t_x_16_1_more_irrev1_3_1    -1.42769849906214 	(obj:0)
prodt_x_1_2_t_x_2_3_more_irrev2_3_1     2.66436996290589 	(obj:0)
prodt_x_2_1_t_x_4_3_more_irrev2_3_1     2.44185640417007 	(obj:0)
prodt_x_4_3_t_x_7_1_more_irrev2_3_1            2.2356974 	(obj:0)
prodt_x_5_3_t_x_7_1_more_irrev2_3_1    0.770747440377568 	(obj:0)
prodt_x_6_1_t_x_7_3_more_irrev2_3_1     1.07439985701732 	(obj:0)
prodt_x_7_1_t_x_8_3_more_irrev2_3_1     1.58986988000002 	(obj:0)
prodt_x_9_3_t_x_11_1_more_irrev2_3_1    0.767234099570724 	(obj:0)
prodt_x_10_3_t_x_12_1_more_irrev2_3_1      2.4291422064716 	(obj:0)
prodt_x_13_1_t_x_14_3_more_irrev2_3_1                    1 	(obj:0)
prodt_x_14_1_t_x_16_3_more_irrev2_3_1   0.0376966949945694 	(obj:0)
prodt_x_15_3_t_x_16_1_more_irrev2_3_1     1.42769849906214 	(obj:0)
prodt_x_1_2_t_x_2_3_more_irrev1_3_2     2.66436996290589 	(obj:0)
prodt_x_3_2_t_x_4_3_more_irrev1_3_2    0.330820213020479 	(obj:0)
prodt_x_4_3_t_x_7_2_more_irrev1_3_2           1.13599187 	(obj:0)
prodt_x_5_3_t_x_7_2_more_irrev1_3_2     2.99048113393033 	(obj:0)
prodt_x_8_2_t_x_9_3_more_irrev1_3_2     1.75155261653983 	(obj:0)
prodt_x_9_3_t_x_11_2_more_irrev1_3_2     2.80222003729628 	(obj:0)
prodt_x_10_3_t_x_12_2_more_irrev1_3_2    0.800748471963091 	(obj:0)
prodt_x_11_2_t_x_13_3_more_irrev1_3_2    0.189285058484977 	(obj:0)
prodt_x_12_2_t_x_14_3_more_irrev1_3_2    0.754308019999994 	(obj:0)
prodt_x_15_3_t_x_16_2_more_irrev1_3_2     1.67751203492357 	(obj:0)
prodt_x_1_2_t_x_2_3_more_irrev2_3_2    -2.66436996290589 	(obj:0)
prodt_x_3_2_t_x_4_3_more_irrev2_3_2   -0.330820213020479 	(obj:0)
prodt_x_4_3_t_x_7_2_more_irrev2_3_2          -1.13599187 	(obj:0)
prodt_x_5_3_t_x_7_2_more_irrev2_3_2    -2.99048113393035 	(obj:0)
prodt_x_8_2_t_x_9_3_more_irrev2_3_2    -1.75155261653983 	(obj:0)
prodt_x_9_3_t_x_11_2_more_irrev2_3_2    -2.80222003729628 	(obj:0)
prodt_x_10_3_t_x_12_2_more_irrev2_3_2   -0.800748471963091 	(obj:0)
prodt_x_11_2_t_x_13_3_more_irrev2_3_2   -0.189285058484977 	(obj:0)
prodt_x_12_2_t_x_14_3_more_irrev2_3_2   -0.754308019999994 	(obj:0)
prodt_x_15_3_t_x_16_2_more_irrev2_3_2    -1.67751203492357 	(obj:0)
SCIP Status        : solving was interrupted [time limit reached]
Total Time         :    3600.00
  solving          :    3600.00
  presolving       :       0.05 (included in solving)
  reading          :       0.00
  copying          :       1.51 (183 #copies) (minimal 0.00, maximal 0.02, average 0.01)
Original Problem   :
  Problem name     : ../instances/Pot4/Pot4_T_20B_alpha=5.txt.spa
  Variables        : 101 (100 binary, 0 integer, 0 implicit integer, 1 continuous)
  Constraints      : 193 initial, 193 maximal
  Objective sense  : maximize
Presolved Problem  :
  Problem name     : t_../instances/Pot4/Pot4_T_20B_alpha=5.txt.spa
  Variables        : 590 (92 binary, 0 integer, 16 implicit integer, 482 continuous)
  Constraints      : 2015 initial, 5409 maximal
Presolvers         :   ExecTime  SetupTime  Calls  FixedVars   AggrVars   ChgTypes  ChgBounds   AddHoles    DelCons    AddCons   ChgSides   ChgCoefs
  boundshift       :       0.00       0.00      0          0          0          0          0          0          0          0          0          0
  components       :       0.00       0.00      1          0          0          0          0          0          0          0          0          0
  convertinttobin  :       0.00       0.00      0          0          0          0          0          0          0          0          0          0
  domcol           :       0.00       0.00      1          0          0          0          0          0          0          0          0          0
  dualagg          :       0.00       0.00      0          0          0          0          0          0          0          0          0          0
  dualinfer        :       0.00       0.00      0          0          0          0          0          0          0          0          0          0
  gateextraction   :       0.00       0.00      3          0          0          0          0          0        108         34          0          0
  implfree         :       0.00       0.00      0          0          0          0          0          0          0          0          0          0
  implics          :       0.00       0.00      4          0          0          0          0          0          0          0          0          0
  inttobinary      :       0.00       0.00      0          0          0          0          0          0          0          0          0          0
  redvub           :       0.00       0.00      0          0          0          0          0          0          0          0          0          0
  stuffing         :       0.00       0.00      1          0          0          0          0          0          0          0          0          0
  trivial          :       0.00       0.00      7          0          0          0          0          0          0          0          0          0
  tworowbnd        :       0.00       0.00      0          0          0          0          0          0          0          0          0          0
  dualfix          :       0.00       0.00      7          4          0          0          0          0          0          0          0          0
  genvbounds       :       0.00       0.00      0          0          0          0          0          0          0          0          0          0
  probing          :       0.03       0.00      1          0          0          0          4          0          0          0          0          0
  pseudoobj        :       0.00       0.00      0          0          0          0          0          0          0          0          0          0
  varbound         :       0.00       0.00      9          0          0          0          0          0         28         28          0          0
  setppc           :       0.00       0.00     12          0          0          0          0          0          0          0          0          0
  and              :       0.00       0.00      4          0         12          0          0          0         12          0          0          0
  linear           :       0.01       0.00      9          3          1          0          4          0          7          0         12         12
  logicor          :       0.00       0.00      7          0          0          0          0          0          0          0          0          0
  bounddisjunction :       0.00       0.00      0          0          0          0          0          0          0          0          0          0
  quadratic        :       0.01       0.00      2          0          0          0          0          0          0       1915          0          0
  root node        :          -          -      -          1          -          -         81          -          -          -          -          -
Constraints        :     Number  MaxNumber  #Separate #Propagate    #EnfoLP    #EnfoPS     #Check   #ResProp    Cutoffs    DomReds       Cuts    Applied      Conss   Children
  integral         :          0          0          0          0    2181716          0     405285          0          0      49187          0          0        252    4345374
  varbound         :        869        869         92   13214994       4977          0      97108    6684435     100049   97561520          0          0          0          0
  setppc           :        110+       176         92   13114686       4976          0        627    3115065      31276    6659365         11          1          0          0
  and              :         22         22     188645     979720         12          0        520     510551         95     234241       1012       1004          0          0
  linear           :        979        979         92   13083575       2315          0        510    3519538     383265  155817810     127661     127445          0          0
  logicor          :         35+       885         91    4009303          0          0          0      93510       7299     285296          5          5          0          0
  bounddisjunction :          0+      2508          0    6110620          0          0          0     480579      15242    6546523          0          0          0          0
  countsols        :          0          0          0          0          4          0     307822          0          0          0          0          0          0          0
Constraint Timings :  TotalTime  SetupTime   Separate  Propagate     EnfoLP     EnfoPS      Check    ResProp    SB-Prop
  integral         :      18.59       0.00       0.00       0.00      18.58       0.00       0.01       0.00       0.00
  varbound         :      77.03       0.00       0.00      75.50       0.04       0.00       0.43       0.88       0.18
  setppc           :      50.49       0.00       0.00      49.64       0.02       0.00       0.00       0.69       0.14
  and              :       0.74       0.00       0.15       0.45       0.00       0.00       0.01       0.13       0.00
  linear           :     218.42       0.00       0.00     215.69       0.13       0.00       0.00       2.29       0.31
  logicor          :      17.00       0.00       0.00      16.93       0.00       0.00       0.00       0.03       0.04
  bounddisjunction :      82.93       0.00       0.00      82.74       0.00       0.00       0.00       0.12       0.07
  countsols        :       0.01       0.00       0.00       0.00       0.00       0.00       0.01       0.00       0.00
Propagators        : #Propagate   #ResProp    Cutoffs    DomReds
  dualfix          :          2          0          0          0
  genvbounds       :          0          0          0          0
  obbt             :          0          0          0          0
  probing          :          0          0          0          0
  pseudoobj        :   13933998          0       6453         79
  redcost          :    4725165          0        169     548144
  rootredcost      :          6          0          0          1
  vbounds          :   15395872      47879          4      31013
Propagator Timings :  TotalTime  SetupTime   Presolve  Propagate    ResProp    SB-Prop
  dualfix          :       0.00       0.00       0.00       0.00       0.00       0.00
  genvbounds       :       2.04       0.00       0.00       2.03       0.00       0.01
  obbt             :       0.00       0.00       0.00       0.00       0.00       0.00
  probing          :       0.03       0.00       0.03       0.00       0.00       0.00
  pseudoobj        :       4.24       0.00       0.00       4.23       0.00       0.01
  redcost          :      21.65       0.00       0.00      21.63       0.00       0.02
  rootredcost      :       2.27       0.00       0.00       2.27       0.00       0.00
  vbounds          :       4.96       0.00       0.00       4.95       0.00       0.01
Conflict Analysis  :       Time      Calls    Success    DomReds  Conflicts   Literals    Reconvs ReconvLits   LP Iters
  propagation      :       9.47     161363     159828          -    1954733       38.3       8863       40.8          -
  infeasible LP    :      10.20      83585      62453          -    1013734       39.8        222       15.3          0
  bound exceed. LP :       0.00          0          0          -          0        0.0          0        0.0          0
  strong branching :       0.00          0          0          -          0        0.0          0        0.0          0
  pseudo solution  :       0.00          0          0          -          0        0.0          0        0.0          -
  applied globally :       4.31          -          -          0     369808       19.8          -          -          -
  applied locally  :          -          -          -          0       5823       33.7          -          -          -
Separators         :   ExecTime  SetupTime      Calls    Cutoffs    DomReds       Cuts    Applied      Conss
  cut pool         :       0.00                    91          -          -       1417          -          -    (maximal pool size: 829)
  cgmip            :       0.00       0.00          0          0          0          0          0          0
  clique           :       0.00       0.00         92          0          0         44         30          0
  closecuts        :       0.00       0.00          0          0          0          0          0          0
  cmir             :       0.02       0.00         10          0          0        251        172          0
  disjunctive      :       0.00       0.00          0          0          0          0          0          0
  eccuts           :       0.00       0.00          0          0          0          0          0          0
  flowcover        :       0.15       0.00         15          0          0        238         22          0
  gomory           :       0.03       0.00         10          0          0          8          8          0
  impliedbounds    :       0.00       0.00         92          0          0        799        143          0
  intobj           :       0.00       0.00          0          0          0          0          0          0
  mcf              :       0.01       0.00          1          0          0          0          0          0
  oddcycle         :       0.00       0.00          0          0          0          0          0          0
  rapidlearning    :       0.00       0.00          0          0          0          0          0          0
  strongcg         :       0.04       0.00         20          0          0          3          2          0
  zerohalf         :       0.00       0.00          0          0          0          0          0          0
Pricers            :   ExecTime  SetupTime      Calls       Vars
  problem variables:       0.00          -          0          0
Branching Rules    :   ExecTime  SetupTime   BranchLP  BranchExt   BranchPS    Cutoffs    DomReds       Cuts      Conss   Children
  allfullstrong    :       0.00       0.00          0          0          0          0          0          0          0          0
  cloud            :       0.00       0.00          0          0          0          0          0          0          0          0
  distribution     :       0.00       0.00          0          0          0          0          0          0          0          0
  fullstrong       :       0.00       0.00          0          0          0          0          0          0          0          0
  inference        :       0.00       0.00          0          0          0          0          0          0          0          0
  leastinf         :       0.00       0.00          0          0          0          0          0          0          0          0
  mostinf          :       0.00       0.00          0          0          0          0          0          0          0          0
  multaggr         :       0.00       0.00          0          0          0          0          0          0          0          0
  nodereopt        :       0.00       0.00          0          0          0          0          0          0          0          0
  pscost           :       0.00       0.00          0          0          0          0          0          0          0          0
  random           :       0.00       0.00          0          0          0          0          0          0          0          0
  relpscost        :      17.67       0.00    2176738          0          0          0      49187          0       -194    4345374
Primal Heuristics  :   ExecTime  SetupTime      Calls      Found       Best
  LP solutions     :       0.00          -          -          4          -
  pseudo solutions :       0.00          -          -          0          -
  strong branching :       0.00          -          -          0          -
  SpaGreedy        :     337.65       0.00     307821          2          1
  actconsdiving    :       0.00       0.00          0          0          0
  bound            :       0.00       0.00          0          0          0
  clique           :       0.00       0.00          0          0          0
  coefdiving       :      34.03       0.00      10754          0          0
  crossover        :       1.15       0.00          3          0          0
  dins             :       0.00       0.00          0          0          0
  distributiondivin:      53.65       0.00      10753          0          0
  dualval          :       0.00       0.00          0          0          0
  feaspump         :      19.24       0.00       1990          0          0
  fixandinfer      :       0.00       0.00          0          0          0
  fracdiving       :      32.74       0.00      10754          0          0
  guideddiving     :      33.47       0.00      10753          0          0
  indicator        :       0.40       0.00          0          0          0
  intdiving        :       0.00       0.00          0          0          0
  intshifting      :       0.43       0.00        189          0          0
  linesearchdiving :      33.63       0.00      10754          0          0
  localbranching   :       0.00       0.00          0          0          0
  mutation         :       0.00       0.00          0          0          0
  nlpdiving        :       0.04       0.00          0          0          0
  objpscostdiving  :      19.31       0.00       2676          0          0
  octane           :       0.00       0.00          0          0          0
  ofins            :       0.00       0.00          0          0          0
  oneopt           :       0.60       0.00          5          0          0
  proximity        :       0.00       0.00          0          0          0
  pscostdiving     :      32.20       0.00      10753          0          0
  randrounding     :       1.03       0.00      96984          0          0
  rens             :       0.29       0.00          1          0          0
  reoptsols        :       0.00       0.00          0          0          0
  rins             :       5.87       0.00        142          1          1
  rootsoldiving    :      20.01       0.00       3382          0          0
  rounding         :       0.90       0.00      20685          0          0
  shiftandpropagate:       0.00       0.00          0          0          0
  shifting         :       1.32       0.00       5289          0          0
  simplerounding   :       0.43       0.00          0          0          0
  subnlp           :       0.59       0.00          0          0          0
  trivial          :       0.00       0.00          2          0          0
  trivialnegation  :       0.00       0.00          0          0          0
  trysol           :       0.76       0.00          0          0          0
  twoopt           :       0.00       0.00          0          0          0
  undercover       :       0.00       0.00          1          0          0
  vbounds          :       0.00       0.00          0          0          0
  veclendiving     :      34.39       0.00      10754          0          0
  zeroobj          :       0.00       0.00          0          0          0
  zirounding       :       0.54       0.00       1000          0          0
  other solutions  :          -          -          -          0          -
Diving Statistics  :      Calls      Nodes   LP Iters Backtracks   MinDepth   MaxDepth   AvgDepth  NLeafSols  MinSolDpt  MaxSolDpt  AvgSolDpt
  actconsdiving    :          0          -          -          -          -          -          -          -          -          -          -
  coefdiving       :      10754      76200     753334      15714         17         42       28.6          -          -          -          -
  distributiondivin:      10753      66521     775224      15388         16         40       28.0          -          -          -          -
  fracdiving       :      10754      77832     850515      18517         18         48       28.4          -          -          -          -
  guideddiving     :      10753      86290     888890      15842         19         47       29.7          -          -          -          -
  linesearchdiving :      10754      69237     877102      18378         17         39       27.6          -          -          -          -
  pscostdiving     :      10753      87395     810478      14570         18         50       29.8          -          -          -          -
  veclendiving     :      10754      73507     743842      19857         17         39       28.0          -          -          -          -
LP                 :       Time      Calls Iterations  Iter/call   Iter/sec  Time-0-It Calls-0-It
  primal LP        :       0.00         14          0       0.00          -       0.00         14
  dual LP          :    1537.34    4066912   65152091      18.85   42379.75      56.82     611084
  lex dual LP      :       0.00          0          0       0.00          -
  barrier LP       :       0.00          0          0       0.00          -       0.00          0
  diving/probing LP:     184.48     285026    7766152      27.25   42097.53
  strong branching :       6.17       6099     225358      36.95   36524.80
    (at root node) :          -         29       1750      60.34          -
  conflict analysis:       0.00          0          0       0.00          -
B&B Tree           :
  number of runs   :          1
  nodes            :    4052642 (2172687 internal, 1879955 leaves)
  nodes (total)    :    4052642 (2172687 internal, 1879955 leaves)
  nodes left       :     279449
  max depth        :         40
  max depth (total):         40
  backtracks       :    1012365 (25.0%)
  delayed cutoffs  :      12925
  repropagations   :     170405 (4594702 domain reductions, 11565 cutoffs)
  avg switch length:       5.92
  switching time   :     523.30
Root Node          :
  First LP value   : +3.00000000000000e+00
  First LP Iters   :        382
  First LP Time    :       0.00
  Final Dual Bound : +7.38154293815394e-03
  Final Root Iters :       3555
Solution           :
  Solutions found  :          7 (6 improvements)
  First Solution   : +7.85398733999992e-04   (in run 1, after 1 nodes, 0.05 seconds, depth 0, found by <SpaGreedy>)
  Gap First Sol.   :   infinite
  Gap Last Sol.    :      62.47 %
  Primal Bound     : +8.66637507000157e-04   (in run 1, after 567856 nodes, 511.69 seconds, depth 32, found by <relaxation>)
  Dual Bound       : +1.25129852226373e-03
  Gap              :      44.39 %
  Avg. Gap         :      37.10 % (133570.06 primal-dual integral)
